
Starting CP-SAT solver v9.14.6206
Parameters: max_time_in_seconds: 600 log_search_progress: true num_search_workers: 8 relative_gap_limit: 0

Initial optimization model '': (model_fingerprint: 0xa2fdd392e17c9e8f)
#Variables: 578 (#ints: 86 in objective) (492 primary variables)
  - 86 in [0,18097]
  - 72 in [1440,18097]
  - 420 in [2880,18097]
#kInterval: 248 (#fixed: 2)
#kLinMax: 86 (#expressions: 172)
#kLinear1: 32
#kLinear2: 214
#kNoOverlap: 10 (#intervals: 248, #fixed_intervals: 2)

Starting presolve at 0.00s
  1.37e-04s  0.00e+00d  [DetectDominanceRelations] 
  3.06e-03s  0.00e+00d  [operations_research::sat::CpModelPresolver::PresolveToFixPoint] #num_loops=10 #num_dual_strengthening=1 
  6.80e-06s  0.00e+00d  [operations_research::sat::CpModelPresolver::ExtractEncodingFromLinear] 
  4.39e-05s  0.00e+00d  [operations_research::sat::CpModelPresolver::DetectDuplicateColumns] 
  1.20e-04s  0.00e+00d  [operations_research::sat::CpModelPresolver::DetectDuplicateConstraints] 
[Symmetry] Graph for symmetry has 1'380 nodes and 1'335 arcs.
[Symmetry] Symmetry computation done. time: 0.0001721 dtime: 0.00021987
  1.70e-04s  0.00e+00d  [operations_research::sat::CpModelPresolver::DetectDuplicateConstraintsWithDifferentEnforcements] 
  1.48e-03s  4.25e-06d  [operations_research::sat::CpModelPresolver::Probe] #new_bounds=13 
  7.40e-06s  0.00e+00d  [MaxClique] 
  1.11e-04s  0.00e+00d  [DetectDominanceRelations] 
  7.41e-04s  0.00e+00d  [operations_research::sat::CpModelPresolver::PresolveToFixPoint] #num_loops=3 #num_dual_strengthening=2 
  6.48e-05s  0.00e+00d  [operations_research::sat::CpModelPresolver::ProcessAtMostOneAndLinear] 
  1.13e-04s  0.00e+00d  [operations_research::sat::CpModelPresolver::DetectDuplicateConstraints] 
  1.05e-04s  0.00e+00d  [operations_research::sat::CpModelPresolver::DetectDuplicateConstraintsWithDifferentEnforcements] 
  6.11e-05s  1.79e-06d  [operations_research::sat::CpModelPresolver::DetectDominatedLinearConstraints] #relevant_constraints=298 
  5.19e-05s  0.00e+00d  [operations_research::sat::CpModelPresolver::DetectDifferentVariables] 
  4.60e-06s  0.00e+00d  [operations_research::sat::CpModelPresolver::ProcessSetPPC] 
  6.80e-06s  0.00e+00d  [operations_research::sat::CpModelPresolver::FindAlmostIdenticalLinearConstraints] 
  1.54e-05s  0.00e+00d  [operations_research::sat::CpModelPresolver::FindBigAtMostOneAndLinearOverlap] 
  3.94e-05s  1.06e-05d  [operations_research::sat::CpModelPresolver::FindBigVerticalLinearOverlap] 
  4.50e-06s  0.00e+00d  [operations_research::sat::CpModelPresolver::FindBigHorizontalLinearOverlap] 
  8.00e-06s  0.00e+00d  [operations_research::sat::CpModelPresolver::MergeClauses] 
  1.05e-04s  0.00e+00d  [DetectDominanceRelations] 
  5.57e-04s  0.00e+00d  [operations_research::sat::CpModelPresolver::PresolveToFixPoint] #num_loops=1 #num_dual_strengthening=1 
  9.67e-05s  0.00e+00d  [DetectDominanceRelations] 
  5.35e-04s  0.00e+00d  [operations_research::sat::CpModelPresolver::PresolveToFixPoint] #num_loops=1 #num_dual_strengthening=1 
  2.53e-05s  0.00e+00d  [operations_research::sat::CpModelPresolver::DetectDuplicateColumns] 
  1.05e-04s  0.00e+00d  [operations_research::sat::CpModelPresolver::DetectDuplicateConstraints] 
[Symmetry] Graph for symmetry has 1'378 nodes and 1'334 arcs.
[Symmetry] Symmetry computation done. time: 9e-05 dtime: 0.00021973
  1.36e-04s  0.00e+00d  [operations_research::sat::CpModelPresolver::DetectDuplicateConstraintsWithDifferentEnforcements] 
  8.20e-04s  2.30e-06d  [operations_research::sat::CpModelPresolver::Probe] 
  4.70e-06s  0.00e+00d  [MaxClique] 
  9.88e-05s  0.00e+00d  [DetectDominanceRelations] 
  5.54e-04s  0.00e+00d  [operations_research::sat::CpModelPresolver::PresolveToFixPoint] #num_loops=1 #num_dual_strengthening=1 
  6.08e-05s  0.00e+00d  [operations_research::sat::CpModelPresolver::ProcessAtMostOneAndLinear] 
  1.01e-04s  0.00e+00d  [operations_research::sat::CpModelPresolver::DetectDuplicateConstraints] 
  9.86e-05s  0.00e+00d  [operations_research::sat::CpModelPresolver::DetectDuplicateConstraintsWithDifferentEnforcements] 
  5.50e-05s  1.79e-06d  [operations_research::sat::CpModelPresolver::DetectDominatedLinearConstraints] #relevant_constraints=298 
  4.74e-05s  0.00e+00d  [operations_research::sat::CpModelPresolver::DetectDifferentVariables] 
  3.70e-06s  0.00e+00d  [operations_research::sat::CpModelPresolver::ProcessSetPPC] 
  6.10e-06s  0.00e+00d  [operations_research::sat::CpModelPresolver::FindAlmostIdenticalLinearConstraints] 
  1.46e-05s  0.00e+00d  [operations_research::sat::CpModelPresolver::FindBigAtMostOneAndLinearOverlap] 
  3.61e-05s  1.06e-05d  [operations_research::sat::CpModelPresolver::FindBigVerticalLinearOverlap] 
  4.20e-06s  0.00e+00d  [operations_research::sat::CpModelPresolver::FindBigHorizontalLinearOverlap] 
  7.50e-06s  0.00e+00d  [operations_research::sat::CpModelPresolver::MergeClauses] 
  9.63e-05s  0.00e+00d  [DetectDominanceRelations] 
  5.26e-04s  0.00e+00d  [operations_research::sat::CpModelPresolver::PresolveToFixPoint] #num_loops=1 #num_dual_strengthening=1 
  2.16e-05s  0.00e+00d  [operations_research::sat::CpModelPresolver::ExpandObjective] 

Presolve summary:
  - 246 affine relations were detected.
  - rule 'TODO dual: only one blocking constraint?' was applied 623 times.
  - rule 'TODO dual: only one unspecified blocking constraint?' was applied 588 times.
  - rule 'affine: new relation' was applied 246 times.
  - rule 'dual: reduced domain' was applied 2 times.
  - rule 'intervals: removed unused interval' was applied 2 times.
  - rule 'lin_max: converted to equality' was applied 2 times.
  - rule 'lin_max: removed exprs' was applied 2 times.
  - rule 'lin_max: rewrite with precedences' was applied 84 times.
  - rule 'lin_max: target domain reduced' was applied 86 times.
  - rule 'linear1: x in domain' was applied 11 times.
  - rule 'linear: always true' was applied 107 times.
  - rule 'linear: fixed or dup variables' was applied 2 times.
  - rule 'linear: reduced variable domains' was applied 1'287 times.
  - rule 'linear: remapped using affine relations' was applied 524 times.
  - rule 'no_overlap: split into disjoint components' was applied 2 times.
  - rule 'objective: variable not used elsewhere' was applied 2 times.
  - rule 'presolve: 2 unused variables removed.' was applied 1 time.
  - rule 'presolve: iteration' was applied 2 times.

Presolved optimization model '': (model_fingerprint: 0x54d28e753c83947e)
#Variables: 330 (#ints: 84 in objective) (246 primary variables)
  - 209 different domains in [0,18076] with a largest complexity of 1.
#kInterval: 246
#kLinear2: 298
#kNoOverlap: 10 (#intervals: 246)
[Symmetry] Graph for symmetry has 1'130 nodes and 1'334 arcs.
[Symmetry] Symmetry computation done. time: 8.1e-05 dtime: 0.00020485

Preloading model.
#Bound   0.01s best:inf   next:[0,1371100] initial_domain
#Model   0.01s var:330/330 constraints:554/554

Starting search at 0.01s with 8 workers.
6 full problem subsolvers: [core, default_lp, fixed, max_lp, no_lp, quick_restart]
2 first solution subsolvers: [fj, fs_random_no_lp]
13 interleaved subsolvers: [feasibility_pump, graph_arc_lns, graph_cst_lns, graph_dec_lns, graph_var_lns, ls, rins/rens, rnd_cst_lns, rnd_var_lns, scheduling_intervals_lns, scheduling_precedences_lns, scheduling_resource_windows_lns, scheduling_time_window_lns]
3 helper subsolvers: [neighborhood_helper, synchronization_agent, update_gap_integral]

#1       0.03s best:34390 next:[0,34389]  no_lp
#2       0.03s best:621   next:[0,620]    core
#3       0.06s best:620   next:[0,619]    fixed
#Bound   0.09s best:620   next:[1,619]    bool_core (num_cores=1 [size:4 mw:1 d:2] a=83 d=2 fixed=2/302 clauses=2)
#Bound   0.09s best:620   next:[2,619]    bool_core (num_cores=1 [cover] a=83 d=2 fixed=2/309 clauses=5)
#Bound   0.09s best:620   next:[3,619]    bool_core (num_cores=1 [cover] a=83 d=2 fixed=3/316 clauses=11)
#Bound   0.09s best:620   next:[4,619]    bool_core (num_cores=1 [cover] a=83 d=2 fixed=4/323 clauses=20)
#Bound   0.09s best:620   next:[5,619]    bool_core (num_cores=1 [cover] a=83 d=2 fixed=5/330 clauses=32)
#Bound   0.09s best:620   next:[6,619]    bool_core (num_cores=1 [cover] a=83 d=2 fixed=6/337 clauses=47)
#Bound   0.09s best:620   next:[7,619]    bool_core (num_cores=1 [cover] a=83 d=2 fixed=7/344 clauses=65)
#Bound   0.09s best:620   next:[8,619]    bool_core (num_cores=1 [cover] a=83 d=2 fixed=8/351 clauses=86)
#Bound   0.09s best:620   next:[9,619]    bool_core (num_cores=1 [cover] a=83 d=2 fixed=9/358 clauses=110)
#Bound   0.09s best:620   next:[10,619]   bool_core (num_cores=1 [cover] a=83 d=2 fixed=10/365 clauses=137)
#Bound   0.09s best:620   next:[11,619]   bool_core (num_cores=1 [cover] a=83 d=2 fixed=11/372 clauses=167)
#Bound   0.09s best:620   next:[12,619]   bool_core (num_cores=1 [cover] a=83 d=2 fixed=12/379 clauses=200)
#Bound   0.09s best:620   next:[13,619]   bool_core (num_cores=1 [cover] a=83 d=2 fixed=13/386 clauses=236)
#Bound   0.09s best:620   next:[14,619]   bool_core (num_cores=1 [cover] a=83 d=2 fixed=14/393 clauses=275)
#Bound   0.09s best:620   next:[15,619]   bool_core (num_cores=1 [cover] a=83 d=2 fixed=15/400 clauses=317)
#Bound   0.09s best:620   next:[16,619]   bool_core (num_cores=1 [cover] a=83 d=2 fixed=16/407 clauses=362)
#Bound   0.09s best:620   next:[17,619]   bool_core (num_cores=1 [cover] a=83 d=2 fixed=17/414 clauses=410)
#Bound   0.09s best:620   next:[18,619]   bool_core (num_cores=1 [cover] a=83 d=2 fixed=18/421 clauses=461)
#Bound   0.09s best:620   next:[19,619]   bool_core (num_cores=1 [cover] a=83 d=2 fixed=19/428 clauses=515)
#Bound   0.09s best:620   next:[20,619]   bool_core (num_cores=1 [cover] a=83 d=2 fixed=20/435 clauses=572)
#4       0.12s best:619   next:[22,618]   quick_restart
#5       0.15s best:618   next:[22,617]   no_lp
#6       0.16s best:617   next:[22,616]   no_lp
#7       0.17s best:616   next:[22,615]   no_lp
#8       0.18s best:615   next:[22,614]   fixed
#9       0.18s best:22    next:[]         core
#Done    0.18s core
#Bound   0.09s best:620   next:[22,619]   bool_core (num_cores=1 [cover] a=83 d=2 fixed=22/449 clauses=695) [skipped_logs=1]

Task timing                                  n [     min,      max]      avg      dev     time         n [     min,      max]      avg      dev    dtime
                             'core':         1 [169.86ms, 169.86ms] 169.86ms   0.00ns 169.86ms         1 [ 15.69ms,  15.69ms]  15.69ms   0.00ns  15.69ms
                       'default_lp':         1 [171.38ms, 171.38ms] 171.38ms   0.00ns 171.38ms         1 [ 23.94ms,  23.94ms]  23.94ms   0.00ns  23.94ms
                 'feasibility_pump':         1 [  3.23ms,   3.23ms]   3.23ms   0.00ns   3.23ms         0 [  0.00ns,   0.00ns]   0.00ns   0.00ns   0.00ns
                            'fixed':         1 [171.09ms, 171.09ms] 171.09ms   0.00ns 171.09ms         1 [ 20.01ms,  20.01ms]  20.01ms   0.00ns  20.01ms
                               'fj':         1 [ 70.08ms,  70.08ms]  70.08ms   0.00ns  70.08ms         1 [100.26ms, 100.26ms] 100.26ms   0.00ns 100.26ms
                  'fs_random_no_lp':         1 [  8.70ms,   8.70ms]   8.70ms   0.00ns   8.70ms         1 [386.90us, 386.90us] 386.90us   0.00ns 386.90us
                    'graph_arc_lns':         0 [  0.00ns,   0.00ns]   0.00ns   0.00ns   0.00ns         0 [  0.00ns,   0.00ns]   0.00ns   0.00ns   0.00ns
                    'graph_cst_lns':         0 [  0.00ns,   0.00ns]   0.00ns   0.00ns   0.00ns         0 [  0.00ns,   0.00ns]   0.00ns   0.00ns   0.00ns
                    'graph_dec_lns':         0 [  0.00ns,   0.00ns]   0.00ns   0.00ns   0.00ns         0 [  0.00ns,   0.00ns]   0.00ns   0.00ns   0.00ns
                    'graph_var_lns':         0 [  0.00ns,   0.00ns]   0.00ns   0.00ns   0.00ns         0 [  0.00ns,   0.00ns]   0.00ns   0.00ns   0.00ns
                               'ls':         0 [  0.00ns,   0.00ns]   0.00ns   0.00ns   0.00ns         0 [  0.00ns,   0.00ns]   0.00ns   0.00ns   0.00ns
                           'max_lp':         1 [174.08ms, 174.08ms] 174.08ms   0.00ns 174.08ms         1 [ 20.27ms,  20.27ms]  20.27ms   0.00ns  20.27ms
                            'no_lp':         1 [170.19ms, 170.19ms] 170.19ms   0.00ns 170.19ms         1 [ 20.05ms,  20.05ms]  20.05ms   0.00ns  20.05ms
                    'quick_restart':         1 [169.54ms, 169.54ms] 169.54ms   0.00ns 169.54ms         1 [ 19.84ms,  19.84ms]  19.84ms   0.00ns  19.84ms
                        'rins/rens':         1 [ 94.88ms,  94.88ms]  94.88ms   0.00ns  94.88ms         1 [  5.03ms,   5.03ms]   5.03ms   0.00ns   5.03ms
                      'rnd_cst_lns':         0 [  0.00ns,   0.00ns]   0.00ns   0.00ns   0.00ns         0 [  0.00ns,   0.00ns]   0.00ns   0.00ns   0.00ns
                      'rnd_var_lns':         1 [160.13ms, 160.13ms] 160.13ms   0.00ns 160.13ms         1 [ 11.05ms,  11.05ms]  11.05ms   0.00ns  11.05ms
         'scheduling_intervals_lns':         0 [  0.00ns,   0.00ns]   0.00ns   0.00ns   0.00ns         0 [  0.00ns,   0.00ns]   0.00ns   0.00ns   0.00ns
       'scheduling_precedences_lns':         0 [  0.00ns,   0.00ns]   0.00ns   0.00ns   0.00ns         0 [  0.00ns,   0.00ns]   0.00ns   0.00ns   0.00ns
  'scheduling_resource_windows_lns':         0 [  0.00ns,   0.00ns]   0.00ns   0.00ns   0.00ns         0 [  0.00ns,   0.00ns]   0.00ns   0.00ns   0.00ns
       'scheduling_time_window_lns':         0 [  0.00ns,   0.00ns]   0.00ns   0.00ns   0.00ns         0 [  0.00ns,   0.00ns]   0.00ns   0.00ns   0.00ns

Search stats          Bools  Conflicts  Branches  Restarts  BoolPropag  IntegerPropag
             'core':    492         27     5'069     1'815      44'193         52'321
       'default_lp':    565        164     1'468       451       7'774        186'882
            'fixed':    560         29     2'662       518       7'435        147'420
  'fs_random_no_lp':     80          0        79         0           0          2'984
           'max_lp':    474         29     1'173       433         916         44'904
            'no_lp':    979        112     3'427       504       9'653        147'184
    'quick_restart':    585         41     2'413       463       7'160        148'152

SAT stats             ClassicMinim  LitRemoved  LitLearned  LitForgotten  Subsumed  MClauses  MDecisions  MLitTrue  MSubsumed  MLitRemoved  MReused
             'core':             5          11         209             0         0     1'060       1'793         0          0            0      327
       'default_lp':           160         345       3'845             0         0         0           0         0          0            0        0
            'fixed':             0           0         137             0         0        44           6         0          0            0      170
  'fs_random_no_lp':             0           0           0             0         0         0           0         0          0            0        0
           'max_lp':             4          10         416             0         0        24           6         0          0            0       90
            'no_lp':            90         178       7'880             0         0         0           0         0          0            0        0
    'quick_restart':            25          72       1'068             0         1         0           0         0          0            0        0

Lp stats            Component  Iterations  AddedCuts  OPTIMAL  DUAL_F.  DUAL_U.
     'default_lp':         32         721          0    2'716        0        0
          'fixed':         32       1'197          0    2'756        0        0
         'max_lp':          1       1'009        354      300        9        0
  'quick_restart':         32       1'277          0    2'355        0        0

Lp dimension         Final dimension of first component
     'default_lp':         1 rows, 9 columns, 2 entries
          'fixed':         1 rows, 9 columns, 2 entries
         'max_lp':  397 rows, 330 columns, 1568 entries
  'quick_restart':         1 rows, 9 columns, 2 entries

Lp debug            CutPropag  CutEqPropag  Adjust  Overflow    Bad  BadScaling
     'default_lp':          0            0       0         0      0           0
          'fixed':          0            0       0         0      0           0
         'max_lp':          0            0       0         0  1'109           0
  'quick_restart':          0            0       0         0      0           0

Lp pool             Constraints  Updates  Simplif  Merged  Shortened  Split  Strenghtened  Cuts/Call
     'default_lp':          298        0        0       0          0      0             0        0/0
          'fixed':          298        0        0       0          0      0             0        0/0
         'max_lp':          650      312        0       2          0      0             0    354/494
  'quick_restart':          298        0        0       0          0      0             0        0/0

Lp Cut                                                max_lp
                                               CG_K:       1
                                               CG_R:       3
                                            MIR_1_R:       1
                  NoOverlapCompletionTimeExhaustive:       6
           NoOverlapCompletionTimeExhaustive_lifted:       5
  NoOverlapCompletionTimeExhaustive_lifted_weighted:      56
         NoOverlapCompletionTimeExhaustive_weighted:      31
                    NoOverlapCompletionTimeQueyrane:      57
             NoOverlapCompletionTimeQueyrane_lifted:      98
                        NoOverlapDisjunctionOnStart:      96

LNS stats                             Improv/Calls  Closed  Difficulty  TimeLimit
                    'graph_arc_lns':           0/0      0%    5.00e-01       0.10
                    'graph_cst_lns':           0/0      0%    5.00e-01       0.10
                    'graph_dec_lns':           0/0      0%    5.00e-01       0.10
                    'graph_var_lns':           0/0      0%    5.00e-01       0.10
                        'rins/rens':           0/1      0%    2.93e-01       0.10
                      'rnd_cst_lns':           0/0      0%    5.00e-01       0.10
                      'rnd_var_lns':           1/1      0%    2.93e-01       0.10
         'scheduling_intervals_lns':           0/0      0%    5.00e-01       0.10
       'scheduling_precedences_lns':           0/0      0%    5.00e-01       0.10
  'scheduling_resource_windows_lns':           0/0      0%    5.00e-01       0.10
       'scheduling_time_window_lns':           0/0      0%    5.00e-01       0.10

LS stats         Batches  Restarts/Perturbs  LinMoves  GenMoves  CompoundMoves  Bactracks  WeightUpdates  ScoreComputed
  'fj_restart':        1                  1        52     1'092              0          0              9        211'529

Solutions (9)       Num   Rank
           'core':    2  [2,9]
          'fixed':    2  [3,8]
          'no_lp':    4  [1,7]
  'quick_restart':    1  [4,4]

Objective bounds     Num
       'bool_core':   22
  'initial_domain':    1

Solution repositories    Added  Queried  Synchro
  'feasible solutions':     21        5       10
   'fj solution hints':      0        0        0
        'lp solutions':      5        1        2
                'pump':      0        0

Improving bounds shared    Num  Sym
            'default_lp':  333    0
                 'fixed':  436    0
                 'no_lp':  845    0
         'quick_restart':  116    0

CpSolverResponse summary:
status: OPTIMAL
objective: 22
best_bound: 22
integers: 331
booleans: 80
conflicts: 0
branches: 79
propagations: 0
integer_propagations: 2984
restarts: 0
lp_iterations: 0
walltime: 0.207222
usertime: 0.207222
deterministic_time: 0.236557
gap_integral: 1.15359
solution_fingerprint: 0xbe97c99dd6067ba7

